2
15
24
40	36
1	2	7	9	34	3	
2	2	14	5	36	3	
3	2	29	3	5	8	
4	2	19	3	9	4	
5	2	6	10	8	10	
6	1	19	9	
7	1	7	11	
8	1	12	7	
9	2	22	4	31	3	
10	2	10	4	8	8	
11	2	20	4	30	2	
12	1	17	3	
13	1	7	17	
14	1	5	9	
15	2	18	6	31	3	
